FILENAME:   /home/mcs001/s132664/testsets/IP/miplib2017/neos-4409277-trave.mps.gz
SETTINGS:   settings_final_nopeek_norelabel_extend_norestarts
TIMELIMIT:  7200
OUTPUTNAME: final_miplib_symretope_if_extended_generating_set_cpx_v802__settings_final_nopeek_norelabel_extend_norestarts__0__
BINNAME:    bin/sbcs.linux.x86_64.gnu.opt.cpx
BASENAME:   neos-4409277-trave.mps.gz
SEED:       0
@01 /home/mcs001/s132664/testsets/IP/miplib2017/neos-4409277-trave.mps.gz ===========
@02 neos-4409277-trave.mps.gz
@03 1686649309
SCIP version 8.0.2 [precision: 8 byte] [memory: block] [mode: optimized] [LP solver: CPLEX 20.1.0.0] [GitHash: 5f0473c]
Copyright (C) 2002-2022 Konrad-Zuse-Zentrum fuer Informationstechnik Berlin (ZIB)

Symretope propagation methods - (c) Jasper van Doornmalen, Christopher Hojny.
[GitHash: 2fd0484]

reading parameter file <../settings/settings_final_nopeek_norelabel_extend_norestarts.set> ...

Changed settings:
limits/time = 7200
limits/restarts = 0
misc/usesymmetry = 1
constraints/orbisack/sepafreq = -1
constraints/symresack/sepafreq = -1
propagating/symmetry/addsymresacks = TRUE
propagating/symmetry/detectsubgroups = FALSE
propagating/symmetry/relabelsymretopes = 0
propagating/symmetry/extendgenerators = TRUE
propagating/symmetry/ofsymcomptiming = 0
constraints/symretope/sepafreq = -1
constraints/symretope/peek = FALSE


solving problem ...

original problem has 14363 variables (14362 bin, 0 int, 0 impl, 1 cont) and 7875 constraints
presolving:
(round 1, exhaustive) 0 del vars, 794 del conss, 0 add conss, 1 chg bounds, 0 chg sides, 0 chg coeffs, 0 upgd conss, 0 impls, 5481 clqs
(round 2, exhaustive) 0 del vars, 794 del conss, 0 add conss, 1 chg bounds, 0 chg sides, 0 chg coeffs, 6959 upgd conss, 0 impls, 5481 clqs
   (1.0s) sparsify aborted: 28724/190678 (15.1%) nonzeros canceled - in total 28724 canceled nonzeros, 28724 changed coefficients, 0 added nonzeros
(round 3, exhaustive) 0 del vars, 794 del conss, 0 add conss, 1 chg bounds, 0 chg sides, 28724 chg coeffs, 6959 upgd conss, 0 impls, 5481 clqs
(round 4, fast)       0 del vars, 834 del conss, 0 add conss, 1 chg bounds, 0 chg sides, 28724 chg coeffs, 6959 upgd conss, 0 impls, 5481 clqs
   (1.5s) probing: 51/14362 (0.4%) - 0 fixings, 0 aggregations, 0 implications, 0 bound changes
   (1.5s) probing aborted: 50/50 successive totally useless probings
   (1.5s) symmetry computation started: requiring (bin +, int +, cont +), (fixed: bin -, int -, cont -)
   (1.7s) symmetry computation finished: 7 generators found (max: 1500, log10 of symmetry group size: 2.3)
(round 5, exhaustive) 7 del vars, 834 del conss, 28 add conss, 1 chg bounds, 0 chg sides, 28724 chg coeffs, 6959 upgd conss, 0 impls, 5481 clqs
   (5.4s) probing: 999/14362 (7.0%) - 1 fixings, 0 aggregations, 917 implications, 0 bound changes
   (5.4s) probing aborted: 50/50 successive totally useless probings
presolving (6 rounds: 6 fast, 5 medium, 5 exhaustive):
 8 deleted vars, 834 deleted constraints, 28 added constraints, 1 tightened bounds, 0 added holes, 0 changed sides, 28724 changed coefficients
 0 implications, 6370 cliques
presolved problem has 14355 variables (14354 bin, 0 int, 1 impl, 0 cont) and 7069 constraints
   1440 constraints of type <knapsack>
   5481 constraints of type <setppc>
     82 constraints of type <linear>
     20 constraints of type <orbisack>
      7 constraints of type <orbitope>
      1 constraints of type <symretope>
     38 constraints of type <logicor>
transformed objective value is always integral (scale: 1)
Presolving Time: 5.41

 time | node  | left  |LP iter|LP it/n|mem/heur|mdpt |vars |cons |rows |cuts |sepa|confs|strbr|  dualbound   | primalbound  |  gap   | compl. 
 39.3s|     1 |     0 | 30285 |     - |   276M |   0 |  14k|7227 |7043 |   0 |  0 | 157 |   0 | 0.000000e+00 |      --      |    Inf | unknown
  137s|     1 |     0 |114445 |     - |   286M |   0 |  14k|7229 |7049 |   6 |  1 | 159 |   0 | 0.000000e+00 |      --      |    Inf | unknown
  170s|     1 |     0 |143106 |     - |   287M |   0 |  14k|7232 |7054 |  11 |  2 | 162 |   0 | 0.000000e+00 |      --      |    Inf | unknown
  203s|     1 |     0 |171827 |     - |   288M |   0 |  14k|7237 |7060 |  17 |  3 | 167 |   0 | 0.000000e+00 |      --      |    Inf | unknown
  235s|     1 |     0 |199091 |     - |   289M |   0 |  14k|7241 |7065 |  22 |  4 | 171 |   0 | 0.000000e+00 |      --      |    Inf | unknown
  269s|     1 |     0 |227589 |     - |   290M |   0 |  14k|7248 |7067 |  24 |  5 | 178 |   0 | 0.000000e+00 |      --      |    Inf | unknown
  302s|     1 |     0 |256595 |     - |   291M |   0 |  14k|7249 |7068 |  25 |  6 | 179 |   0 | 0.000000e+00 |      --      |    Inf | unknown
  337s|     1 |     0 |285384 |     - |   292M |   0 |  14k|7251 |7069 |  26 |  7 | 181 |   0 | 0.000000e+00 |      --      |    Inf | unknown
  373s|     1 |     0 |314623 |     - |   293M |   0 |  14k|7256 |7071 |  28 |  8 | 186 |   0 | 0.000000e+00 |      --      |    Inf | unknown
  409s|     1 |     0 |344622 |     - |   294M |   0 |  14k|7258 |7078 |  35 |  9 | 188 |   0 | 0.000000e+00 |      --      |    Inf | unknown
  442s|     1 |     0 |371371 |     - |   295M |   0 |  14k|7261 |7082 |  39 | 10 | 191 |   0 | 0.000000e+00 |      --      |    Inf | unknown
  475s|     1 |     0 |401031 |     - |   296M |   0 |  14k|7267 |7089 |  46 | 11 | 197 |   0 | 0.000000e+00 |      --      |    Inf | unknown
  562s|     1 |     2 |472943 |     - |   297M |   0 |  14k|7308 |7089 |  46 | 11 | 238 |  22 | 0.000000e+00 |      --      |    Inf | unknown
 3678s|   100 |   101 |  2453k|20731.8 |   304M |  95 |  14k|7308 |7052 |  62 |  1 | 238 |  22 | 0.000000e+00 |      --      |    Inf | unknown
 4288s|   200 |   174 |  3375k|14947.8 |   324M | 133 |  14k|7401 |7052 |  62 |  1 | 333 | 539 | 0.000000e+00 |      --      |    Inf | unknown
 time | node  | left  |LP iter|LP it/n|mem/heur|mdpt |vars |cons |rows |cuts |sepa|confs|strbr|  dualbound   | primalbound  |  gap   | compl. 
 4764s|   300 |   244 |  4380k|13310.9 |   362M | 133 |  14k|7464 |7052 |  62 |  1 | 415 | 672 | 0.000000e+00 |      --      |    Inf | unknown
 5813s|   400 |   328 |  5831k|13610.7 |   389M | 133 |  14k|7547 |7052 |  67 |  1 | 532 | 853 | 0.000000e+00 |      --      |    Inf | unknown
 6913s|   500 |   410 |  7249k|13724.0 |   415M | 133 |  14k|7612 |7052 |  74 |  1 | 618 |1139 | 0.000000e+00 |      --      |    Inf | unknown

SCIP Status        : solving was interrupted [time limit reached]
Solving Time (sec) : 7200.01
Solving Nodes      : 555
Primal Bound       : +1.00000000000000e+20 (0 solutions)
Dual Bound         : +0.00000000000000e+00
Gap                : infinite
SCIP Status        : solving was interrupted [time limit reached]
Total Time         :    7200.15
  solving          :    7200.01
  presolving       :       5.41 (included in solving)
  reading          :       0.14
  copying          :       0.22 (4 #copies) (minimal 0.05, maximal 0.06, average 0.05)
Original Problem   :
  Problem name     : neos-4409277-trave
  Variables        : 14363 (14362 binary, 0 integer, 0 implicit integer, 1 continuous)
  Constraints      : 7875 initial, 7875 maximal
  Objective        : minimize, 1 non-zeros (abs.min = 1, abs.max = 1)
Presolved Problem  :
  Problem name     : t_neos-4409277-trave
  Variables        : 14355 (14354 binary, 0 integer, 1 implicit integer, 0 continuous)
  Constraints      : 7069 initial, 7646 maximal
  Objective        : minimize, 1 non-zeros (abs.min = 1, abs.max = 1)
  Nonzeros         : 291536 constraint, 74698 clique table
Presolvers         :   ExecTime  SetupTime  Calls  FixedVars   AggrVars   ChgTypes  ChgBounds   AddHoles    DelCons    AddCons   ChgSides   ChgCoefs
  boundshift       :       0.00       0.00      0          0          0          0          0          0          0          0          0          0
  convertinttobin  :       0.00       0.00      0          0          0          0          0          0          0          0          0          0
  domcol           :       0.05       0.00      3          0          0          0          0          0          0          0          0          0
  dualagg          :       0.00       0.00      0          0          0          0          0          0          0          0          0          0
  dualcomp         :       0.00       0.00      0          0          0          0          0          0          0          0          0          0
  dualinfer        :       0.00       0.00      0          0          0          0          0          0          0          0          0          0
  dualsparsify     :       0.04       0.00      1          0          0          0          0          0          0          0          0          0
  gateextraction   :       0.02       0.00      3          0          0          0          0          0          0          0          0          0
  implics          :       0.00       0.00      5          0          0          0          0          0          0          0          0          0
  inttobinary      :       0.00       0.00      0          0          0          0          0          0          0          0          0          0
  qpkktref         :       0.00       0.00      0          0          0          0          0          0          0          0          0          0
  redvub           :       0.00       0.00      0          0          0          0          0          0          0          0          0          0
  sparsify         :       0.74       0.00      2          0          0          0          0          0          0          0          0      28724
  stuffing         :       0.00       0.00      0          0          0          0          0          0          0          0          0          0
  trivial          :       0.00       0.00      6          0          0          0          0          0          0          0          0          0
  tworowbnd        :       0.00       0.00      0          0          0          0          0          0          0          0          0          0
  dualfix          :       0.00       0.00      6          0          0          0          0          0          0          0          0          0
  genvbounds       :       0.00       0.00      0          0          0          0          0          0          0          0          0          0
  probing          :       3.67       0.00      2          1          0          0          0          0          0          0          0          0
  pseudoobj        :       0.00       0.00      0          0          0          0          0          0          0          0          0          0
  symmetry         :       0.23       0.00      1          7          0          0          0          0          0         28          0          0
  vbounds          :       0.01       0.00      1          0          0          0          0          0          0          0          0          0
  knapsack         :       0.33       0.00     10          0          0          0          0          0          0          0          0          0
  setppc           :       0.05       0.00     10          0          0          0          0          0          0          0          0          0
  linear           :       0.12       0.04     11          0          0          0          1          0        834          0          0          0
  orbisack         :       0.00       0.00      1          0          0          0          0          0          0          0          0          0
  orbitope         :       0.00       0.00      1          0          0          0          0          0          0          0          0          0
  symretope        :       0.00       0.00      1          0          0          0          0          0          0          0          0          0
  logicor          :       0.00       0.00     10          0          0          0          0          0          0          0          0          0
  benders          :       0.00       0.00      0          0          0          0          0          0          0          0          0          0
  components       :       0.05       0.00      1          0          0          0          0          0          0          0          0          0
  root node        :          -          -      -         40          -          -         40          -          -          -          -          -
Constraints        :     Number  MaxNumber  #Separate #Propagate    #EnfoLP    #EnfoRelax  #EnfoPS    #Check   #ResProp    Cutoffs    DomReds       Cuts    Applied      Conss   Children
  benderslp        :          0          0          0          0        506          0          0         37          0          0          0          0          0          0          0
  integral         :          0          0          0          0        506          0          0         37          0          0         10          0          0         43       1002
  knapsack         :       1440+      1444         11      14090          0          0          0         30      16010          4       6592          0          0          0          0
  setppc           :       5481+      5501         11      14086          0          0          0          2      81717         47      25564          0          0          0          0
  linear           :         82         82         11      14039          0          0          0          0       1789          5        330          0          0          0          0
  orbisack         :         20         20          0          6          0          0          0          0         50          0          0          0          0          0          0
  orbitope         :          7          7          0      13934          0          0          0          0        941         29         46          0          0          0          0
  symretope        :          1          1          0        123          0          0          0          0          0          0          2          0          0          0          0
  logicor          :         38+       593         11       2411          0          0          0          0         86          8         51          8          5          0          0
  benders          :          0          0          0          0          0          0          0          0          0          0          0          0          0          0          0
  countsols        :          0          0          0          0          0          0          0          0          0          0          0          0          0          0          0
  components       :          0          0          0          0          0          0          0          0          0          0          0          0          0          0          0
Constraint Timings :  TotalTime  SetupTime   Separate  Propagate     EnfoLP     EnfoPS     EnfoRelax   Check    ResProp    SB-Prop
  benderslp        :       0.00       0.00       0.00       0.00       0.00       0.00       0.00       0.00       0.00       0.00
  integral         :     490.08       0.00       0.00       0.00     490.08       0.00       0.00       0.01       0.00       0.00
  knapsack         :       0.87       0.00       0.11       0.62       0.00       0.00       0.00       0.01       0.01       0.11
  setppc           :       1.00       0.00       0.02       0.77       0.00       0.00       0.00       0.00       0.03       0.19
  linear           :       0.09       0.04       0.00       0.04       0.00       0.00       0.00       0.00       0.00       0.01
  orbisack         :       0.02       0.00       0.00       0.01       0.00       0.00       0.00       0.00       0.00       0.01
  orbitope         :       3.55       0.00       0.00       2.25       0.00       0.00       0.00       0.00       0.11       1.19
  symretope        :       0.00       0.00       0.00       0.00       0.00       0.00       0.00       0.00       0.00       0.00
  logicor          :       0.03       0.00       0.00       0.02       0.00       0.00       0.00       0.00       0.00       0.01
  benders          :       0.00       0.00       0.00       0.00       0.00       0.00       0.00       0.00       0.00       0.00
  countsols        :       0.00       0.00       0.00       0.00       0.00       0.00       0.00       0.00       0.00       0.00
  components       :       0.00       0.00       0.00       0.00       0.00       0.00       0.00       0.00       0.00       0.00
Propagators        : #Propagate   #ResProp    Cutoffs    DomReds
  dualfix          :          1          0          0          0
  genvbounds       :          0          0          0          0
  nlobbt           :          0          0          0          0
  obbt             :          0          0          0          0
  probing          :          0          0          0          0
  pseudoobj        :       1940          0          0          0
  redcost          :       1031          0          0          0
  rootredcost      :          1          0          0          0
  symmetry         :          0          0          0          0
  vbounds          :       3502          0          0          0
Propagator Timings :  TotalTime  SetupTime   Presolve  Propagate    ResProp    SB-Prop
  dualfix          :       0.00       0.00       0.00       0.00       0.00       0.00
  genvbounds       :       0.01       0.00       0.00       0.00       0.00       0.00
  nlobbt           :       0.00       0.00       0.00       0.00       0.00       0.00
  obbt             :       0.00       0.00       0.00       0.00       0.00       0.00
  probing          :       3.67       0.00       3.67       0.00       0.00       0.00
  pseudoobj        :       0.06       0.00       0.00       0.06       0.00       0.00
  redcost          :       0.42       0.00       0.00       0.42       0.00       0.00
  rootredcost      :       0.00       0.00       0.00       0.00       0.00       0.00
  symmetry         :       0.24       0.00       0.23       0.00       0.00       0.00
  vbounds          :       0.11       0.00       0.01       0.09       0.00       0.00
Orbital fixing     :
  vars fixed to 0  :          0
  vars fixed to 1  :          0
Conflict Analysis  :       Time      Calls    Success    DomReds  Conflicts   Literals    Reconvs ReconvLits   Dualrays   Nonzeros   LP Iters   (pool size: [10000,10000])
  propagation      :       0.05         89         89          -        942       70.7         13       48.4          -          -          -
  infeasible LP    :       1.36         44         34          -       3133     1957.3          3       55.3          7      447.3          0
  bound exceed. LP :       0.10          1          1          -        117     2639.2          0        0.0          0        0.0         20
  strong branching :       0.00          0          0          -          0        0.0          0        0.0          -          -          0
  pseudo solution  :       0.00          0          0          -          0        0.0          0        0.0          -          -          -
  applied globally :       0.03          -          -          0        651      311.3          -          -          7          -          -
  applied locally  :          -          -          -          0          0        0.0          -          -          0          -          -
Separators         :   ExecTime  SetupTime      Calls  RootCalls    Cutoffs    DomReds  FoundCuts ViaPoolAdd  DirectAdd    Applied ViaPoolApp  DirectApp      Conss
  cut pool         :       0.01          -         80         21          -          -        141         49          -          -          -          -          -    (maximal pool size:        141)
  aggregation      :       0.11       0.00         19         11          0          0          8          0          0          0          0          0          0
  > cmir           :          -          -          -          -          -          -          -          0          0          0          0          0          -
  > flowcover      :          -          -          -          -          -          -          -          0          0          0          0          0          -
  > knapsackcover  :          -          -          -          -          -          -          -          0          0          0          0          0          -
  cgmip            :       0.00       0.00          0          0          0          0          0          0          0          0          0          0          0
  clique           :       0.48       0.00         11         11          0          0         86         35          0         34         34          0          0
  closecuts        :       0.00       0.00          0          0          0          0          0          0          0          0          0          0          0
  convexproj       :       0.00       0.00          0          0          0          0          0          0          0          0          0          0          0
  disjunctive      :       0.00       0.00          0          0          0          0          0          0          0          0          0          0          0
  eccuts           :       0.00       0.00          0          0          0          0          0          0          0          0          0          0          0
  gauge            :       0.00       0.00          0          0          0          0          0          0          0          0          0          0          0
  gomory           :       7.77       0.00         18         10          0          0          0          0          0          0          0          0          0
  > gomorymi       :          -          -          -          -          -          -          -          0          0          0          0          0          -
  > strongcg       :          -          -          -          -          -          -          -          0          0          0          0          0          -
  impliedbounds    :       0.02       0.00         19         11          0          0          9          5          0          5          5          0          0
  interminor       :       0.00       0.00          0          0          0          0          0          0          0          0          0          0          0
  intobj           :       0.00       0.00          0          0          0          0          0          0          0          0          0          0          0
  mcf              :       0.01       0.00          1          1          0          0          0          0          0          0          0          0          0
  minor            :       0.00       0.00          0          0          0          0          0          0          0          0          0          0          0
  mixing           :       0.00       0.00         19         11          0          0          0          0          0          0          0          0          0
  oddcycle         :       0.00       0.00          0          0          0          0          0          0          0          0          0          0          0
  rapidlearning    :       0.00       0.00          0          0          0          0          0          0          0          0          0          0          0
  rlt              :       0.00       0.00         10         10          0          0          0          0          0          0          0          0          0
  zerohalf         :       2.75       0.00         19         11          0          0         62          9         24         30          6         24          0
Cutselectors       :   ExecTime  SetupTime      Calls  RootCalls   Selected     Forced   Filtered  RootSelec   RootForc   RootFilt 
  hybrid           :       0.00       0.00         19         11         74          0          7         46          0          7
Pricers            :   ExecTime  SetupTime      Calls       Vars
  problem variables:       0.00          -          0          0
Branching Rules    :   ExecTime  SetupTime   BranchLP  BranchExt   BranchPS    Cutoffs    DomReds       Cuts      Conss   Children
  allfullstrong    :       0.00       0.00          0          0          0          0          0          0          0          0
  cloud            :       0.00       0.00          0          0          0          0          0          0          0          0
  distribution     :       0.00       0.00          0          0          0          0          0          0          0          0
  fullstrong       :       0.00       0.00          0          0          0          0          0          0          0          0
  inference        :       0.00       0.00          0          0          0          0          0          0          0          0
  leastinf         :       0.00       0.00          0          0          0          0          0          0          0          0
  lookahead        :       0.00       0.00          0          0          0          0          0          0          0          0
  mostinf          :       0.00       0.00          0          0          0          0          0          0          0          0
  multaggr         :       0.00       0.00          0          0          0          0          0          0          0          0
  nodereopt        :       0.00       0.00          0          0          0          0          0          0          0          0
  pscost           :       0.00       0.00          0          0          0          0          0          0          0          0
  random           :       0.00       0.00          0          0          0          0          0          0          0          0
  relpscost        :     490.08       0.00        506          0          0          0         10          0         44       1002
  vanillafullstrong:       0.00       0.00          0          0          0          0          0          0          0          0
Primal Heuristics  :   ExecTime  SetupTime      Calls      Found       Best
  LP solutions     :       0.00          -          -          0          0
  relax solutions  :       0.00          -          -          0          0
  pseudo solutions :       0.00          -          -          0          0
  strong branching :       0.00          -          -          0          0
  actconsdiving    :       0.00       0.00          0          0          0
  adaptivediving   :      21.04       0.00          2          0          0
  alns             :    1233.64       0.00          3          0          0
  bound            :       0.00       0.00          0          0          0
  clique           :       0.11       0.00          1          0          0
  coefdiving       :       0.00       0.00          0          0          0
  completesol      :       0.00       0.00          0          0          0
  conflictdiving   :      60.39       0.00          2          0          0
  crossover        :       0.00       0.00          0          0          0
  dins             :       0.00       0.00          0          0          0
  distributiondivin:       7.97       0.00          2          0          0
  dps              :       0.00       0.00          0          0          0
  dualval          :       0.00       0.00          0          0          0
  farkasdiving     :       0.00       0.00          0          0          0
  feaspump         :      61.04       0.00          1          0          0
  fixandinfer      :       0.00       0.00          0          0          0
  fracdiving       :       3.71       0.00          2          0          0
  gins             :       0.00       0.00          0          0          0
  guideddiving     :       0.00       0.00          0          0          0
  indicator        :       0.00       0.00          0          0          0
  intdiving        :       0.00       0.00          0          0          0
  intshifting      :       0.00       0.00          0          0          0
  linesearchdiving :       5.93       0.00          2          0          0
  localbranching   :       0.00       0.00          0          0          0
  locks            :       0.05       0.00          1          0          0
  lpface           :       0.04       0.00          0          0          0
  mpec             :       0.00       0.00          0          0          0
  multistart       :       0.00       0.00          0          0          0
  mutation         :       0.00       0.00          0          0          0
  nlpdiving        :       0.00       0.00          0          0          0
  objpscostdiving  :      29.12       0.00          1          0          0
  octane           :       0.00       0.00          0          0          0
  ofins            :       0.00       0.00          0          0          0
  oneopt           :       0.00       0.00          0          0          0
  padm             :       0.00       0.00          0          0          0
  proximity        :       0.00       0.00          0          0          0
  pscostdiving     :      73.73       0.00          2          0          0
  randrounding     :       0.61       0.00         40          0          0
  rens             :       1.21       0.00          1          0          0
  reoptsols        :       0.00       0.00          0          0          0
  repair           :       0.00       0.00          0          0          0
  rins             :       0.00       0.00          0          0          0
  rootsoldiving    :      14.65       0.00          1          0          0
  rounding         :       1.30       0.00        275          0          0
  shiftandpropagate:       0.07       0.00          1          0          0
  shifting         :       1.03       0.00         69          0          0
  simplerounding   :       0.00       0.00          0          0          0
  subnlp           :       0.00       0.00          0          0          0
  trivial          :       0.03       0.00          2          0          0
  trivialnegation  :       0.00       0.00          0          0          0
  trustregion      :       0.00       0.00          0          0          0
  trysol           :       0.00       0.00          0          0          0
  twoopt           :       0.00       0.00          0          0          0
  undercover       :       0.00       0.00          0          0          0
  vbounds          :       0.15       0.00          1          0          0
  veclendiving     :      19.43       0.00          2          0          0
  zeroobj          :       0.00       0.00          0          0          0
  zirounding       :       0.30       0.00        501          0          0
  other solutions  :          -          -          -          0          -
LP                 :       Time      Calls Iterations  Iter/call   Iter/sec  Time-0-It Calls-0-It    ItLimit
  primal LP        :       9.32          5          0       0.00       0.00       9.32          5
  dual LP          :    5142.60        578    7424306   12867.08    1443.69       0.00          1
  lex dual LP      :       0.00          0          0       0.00          -
  barrier LP       :       0.00          0          0       0.00          -       0.00          0
  resolve instable :       0.00          0          0       0.00          -
  diving/probing LP:     293.55         67     409224    6107.82    1394.06
  strong branching :     485.55       1163    1144368     983.98    2356.87          -          -       2256
    (at root node) :          -         22      21811     991.41          -
  conflict analysis:       0.02          2         20      10.00    1108.28
B&B Tree           :
  number of runs   :          1
  nodes            :        555 (501 internal, 54 leaves)
  feasible leaves  :          0
  infeas. leaves   :         29
  objective leaves :         24
  nodes (total)    :        555 (501 internal, 54 leaves)
  nodes left       :        448
  max depth        :        133
  max depth (total):        133
  backtracks       :         29 (5.2%)
  early backtracks :          0 (0.0%)
  nodes exc. ref.  :          0 (0.0%)
  delayed cutoffs  :          1
  repropagations   :        231 (84 domain reductions, 1 cutoffs)
  avg switch length:       3.28
  switching time   :       9.54
Root Node          :
  First LP value   : +0.00000000000000e+00
  First LP Iters   :      30285 (911.42 Iter/sec)
  First LP Time    :      33.23
  Final Dual Bound : +0.00000000000000e+00
  Final Root Iters :     401031
  Root LP Estimate : +2.09091929641482e+00
Solution           :
  Solutions found  :          0 (0 improvements)
  Primal Bound     :          -
  Dual Bound       : +0.00000000000000e+00
  Gap              :   infinite
Integrals          :      Total       Avg%
  primal-dual      :  720000.62     100.00
  primal-ref       :          -          - (not evaluated)
  dual-ref         :          -          - (not evaluated)
written solution information to file <results/final_miplib_symretope_if_extended_generating_set_cpx_v802__settings_final_nopeek_norelabel_extend_norestarts__0__neos-4409277-trave.mps.gz.sol>
@04 1686656509
